1639686
34,67,7,14,57,8,16,26,44,64,12,53,46,19,3,47,1,35,58,15,62,20,2,60,23,0,11,41,31,55,39,4,18,48,22,59,28,24,29,40,5,10,65,25,54,45,33,6,66,63,37,42,21,51,32,56,17,9,13,43,30,27,49,52,36,61,38,50
